p cnf 12 46
-12 -10 -8 0
-12 10 6 0
-12 -10 -1 0
12 -9 6 0
12 -9 5 0
12 -9 4 0
-12 8 4 0
-12 7 5 0
-12 -7 1 0
-12 -6 2 0
12 4 -2 0
12 4 1 0
-12 2 -1 0
-11 10 -8 0
11 10 -7 0
-11 10 3 0
11 -8 7 0
-11 -8 -2 0
11 -6 -4 0
-11 -5 3 0
-10 9 2 0
-10 -8 3 0
10 8 -3 0
10 8 1 0
10 6 1 0
-10 5 -2 0
-9 8 -2 0
9 7 4 0
9 -7 3 0
9 4 -1 0
9 -3 1 0
-8 -7 5 0
-8 -6 1 0
8 -6 1 0
8 5 -4 0
-8 5 1 0
8 -4 2 0
-8 4 2 0
-8 -2 -1 0
7 -4 -3 0
-7 -3 2 0
-7 3 -1 0
6 -5 3 0
-6 -4 2 0
5 4 3 0
3 2 1 0
